p ds 63 98
1 7
1 10
1 58
2 3
2 35
3 11
3 35
4 45
4 5
4 32
4 36
5 46
5 33
5 18
6 46
6 7
6 29
7 19
7 33
8 12
8 9
8 47
8 55
9 13
9 31
9 56
10 33
10 57
10 20
11 12
11 53
11 30
12 54
12 60
13 14
13 48
13 59
14 56
14 15
15 51
16 19
16 42
17 50
17 49
17 62
18 60
18 36
20 60
20 57
20 21
21 34
21 30
22 45
22 28
22 23
22 26
23 24
23 26
24 25
24 61
25 43
26 41
27 49
27 31
27 32
28 29
30 40
31 47
31 48
32 45
32 37
33 60
34 38
34 39
34 57
35 40
36 37
37 47
38 39
39 40
41 42
41 43
44 54
44 51
44 52
45 46
48 49
48 50
49 61
50 59
50 63
51 55
52 53
53 54
54 55
55 56
57 58
62 63
